num_offers = 28;
start = [21, 23, 23, 23, 23, 1, 1, 1, 1, 1, 1, 46, 46, 46, 46, 46, 30, 30, 30, 30, 30, 30, 30, 30, 38, 38, 38, 38];
end = [62, 60, 60, 60, 60, 74, 74, 74, 74, 74, 74, 86, 86, 86, 86, 86, 92, 92, 92, 92, 92, 92, 92, 92, 79, 79, 79, 79];
price = [2562, 3078, 3078, 3078, 3078, 3478, 3478, 3478, 3478, 3478, 3478, 3731, 3731, 3731, 3731, 3731, 882, 882, 882, 882, 882, 882, 882, 882, 1596, 1596, 1596, 1596];
num_halls = 14;
capacity = [664,664,990,990,990,990,515,515,841,841,841,367,693,693];
requirement = [869,869,869,395,721,721,721,721,721,721,721,247,247,247,247,247,573,573,573,898,424,424,424,424,424,424,750,750];
